10	5
0	3	1	3	2
1	2	7	5
2	2	8	10
3	1	6
4	1	9
5	2	8	4
6	2	7	5
7	3	8	10	9
8	1	11
9	1	11
10	1	11
11	0
0	0	0	0	0	0	0
1	3	4	0	4	2	0
2	6	0	0	0	0	4
3	1	0	3	4	2	2
4	7	0	0	1	1	0
5	1	0	1	0	1	1
6	3	0	0	0	0	1
7	3	5	0	5	0	5
8	6	0	0	4	0	2
9	9	3	0	2	0	4
10	3	4	0	1	1	0
11	0	0	0	0	0	0
5	5	5	5	5
